Version identifier: 22.1.1.0 | 2022-11-28 | 9160aff4d
CPXPARAM_Read_DataCheck                          1
CPXPARAM_MIP_Cuts_Covers                         1
CPXPARAM_MIP_Cuts_FlowCovers                     1
CPXPARAM_MIP_Cuts_MIRCut                         1
CPXPARAM_TimeLimit                               633
Tried aggregator 1 time.
MIP Presolve modified 35838 coefficients.
Reduced MIP has 10467 rows, 15846 columns, and 86551 nonzeros.
Reduced MIP has 15747 binaries, 0 generals, 0 SOSs, and 0 indicators.
Presolve time = 0.04 sec. (55.99 ticks)
Probing time = 0.02 sec. (8.43 ticks)
Tried aggregator 1 time.
Detecting symmetries...
Reduced MIP has 10467 rows, 15846 columns, and 86551 nonzeros.
Reduced MIP has 15747 binaries, 0 generals, 0 SOSs, and 0 indicators.
Presolve time = 0.04 sec. (47.45 ticks)
Probing time = 0.01 sec. (7.82 ticks)
Clique table members: 51240.
MIP emphasis: balance optimality and feasibility.
MIP search method: dynamic search.
Parallel mode: deterministic, using up to 12 threads.
Root relaxation solution time = 0.29 sec. (276.15 ticks)

        Nodes                                         Cuts/
   Node  Left     Objective  IInf  Best Integer    Best Bound    ItCnt     Gap

      0     0      351.1111   175                    351.1111     3662         
      0     0      407.8689   152                   Cuts: 127     4251         
      0     0      416.5217   178                   Cuts: 733     4660         
      0     0      416.8750   139                  Cuts: 1836     4827         
      0     0      416.9286   147                   Cuts: 267     4936         
      0     0      416.9615   148                   Cuts: 166     5031         
Detecting symmetries...
      0     0      417.0000   157                    Cuts: 70     5081         
      0     0      417.0000   154                    Cuts: 98     5394         
      0     0      417.0000   156                    Cuts: 16     5508         
*     0+    0                         9188.0000      417.0000            95.46%
*     0+    0                         8305.0000      417.0000            94.98%
*     0+    0                         5205.0000      417.0000            91.99%
*     0+    0                         3668.0000      417.0000            88.63%
*     0+    0                         3532.0000      417.0000            88.19%
*     0+    0                         1097.0000      417.0000            61.99%
*     0+    0                         1017.0000      417.0000            59.00%
*     0+    0                          997.0000      417.0000            58.17%
*     0+    0                          899.0000      417.0000            53.62%
      0     0  -1.00000e+75     0      899.0000      417.0000     5508   53.62%
Detecting symmetries...
      0     2      417.0000   148      899.0000      417.0000     5508   53.62%
Elapsed time = 5.72 sec. (5112.71 ticks, tree = 0.02 MB, solutions = 9)
      4     6      418.1429   116      899.0000      417.0000     6130   53.62%
     19    20      418.0000   150      899.0000      417.5000     8281   53.56%
     52    30      432.4286   100      899.0000      417.5000    11472   53.56%
     87    60      431.8375   155      899.0000      417.5000    17114   53.56%
    156   101      429.5167   142      899.0000      417.5000    21916   53.56%
    222   182      431.8375   154      899.0000      417.5000    27232   53.56%
    272   206      433.9268   103      899.0000      417.5000    29915   53.56%
    326   237      418.1250   136      899.0000      417.5000    30387   53.56%
    385   308      434.0588   129      899.0000      417.5000    42867   53.56%
    576   541      421.0808    45      899.0000      417.5000    68597   53.56%
Elapsed time = 13.00 sec. (8363.05 ticks, tree = 2.53 MB, solutions = 9)
    784   667      425.2155    12      899.0000      417.5000    90017   53.56%
*   930   802      integral     0      431.0000      417.5000   104982    3.13%
    948   844      432.0000    36      431.0000      417.5000   110080    3.13%
   1242   571      418.5000   147      431.0000      417.6667   136103    3.09%
*  1605+  746                          427.0000      417.6667             2.19%
*  1646+  763                          420.0000      417.6667             0.56%
   1692   699        cutoff            420.0000      417.6667   181262    0.56%

Performing restart 1

Repeating presolve.
Tried aggregator 2 times.
MIP Presolve eliminated 9835 rows and 15024 columns.
MIP Presolve added 8 rows and 0 columns.
MIP Presolve modified 810 coefficients.
Aggregator did 45 substitutions.
Reduced MIP has 595 rows, 777 columns, and 2367 nonzeros.
Reduced MIP has 678 binaries, 0 generals, 0 SOSs, and 0 indicators.
Presolve time = 0.01 sec. (16.69 ticks)
Tried aggregator 2 times.
MIP Presolve eliminated 19 rows and 48 columns.
MIP Presolve added 22 rows and 0 columns.
MIP Presolve modified 707 coefficients.
Aggregator did 2 substitutions.
Reduced MIP has 596 rows, 727 columns, and 2257 nonzeros.
Reduced MIP has 628 binaries, 0 generals, 0 SOSs, and 0 indicators.
Presolve time = 0.01 sec. (5.57 ticks)
Tried aggregator 1 time.
MIP Presolve modified 420 coefficients.
Reduced MIP has 596 rows, 727 columns, and 2257 nonzeros.
Reduced MIP has 628 binaries, 0 generals, 0 SOSs, and 0 indicators.
Presolve time = 0.00 sec. (2.28 ticks)
Represolve time = 0.06 sec. (155.92 ticks)

Repeating presolve.
Tried aggregator 2 times.
MIP Presolve eliminated 113 rows and 285 columns.
MIP Presolve modified 952 coefficients.
Aggregator did 6 substitutions.
Reduced MIP has 477 rows, 436 columns, and 2010 nonzeros.
Reduced MIP has 338 binaries, 0 generals, 0 SOSs, and 0 indicators.
Presolve time = 0.00 sec. (2.46 ticks)
Tried aggregator 2 times.
MIP Presolve eliminated 5 rows and 0 columns.
MIP Presolve modified 143 coefficients.
Aggregator did 1 substitutions.
Reduced MIP has 471 rows, 435 columns, and 1977 nonzeros.
Reduced MIP has 338 binaries, 0 generals, 0 SOSs, and 0 indicators.
Presolve time = 0.00 sec. (1.92 ticks)
Represolve time = 0.01 sec. (12.50 ticks)
*  1796     0      integral     0      420.0000      420.0000   210702    0.00%

Cover cuts applied:  16
Implied bound cuts applied:  146
Flow cuts applied:  0
Mixed integer rounding cuts applied:  106
Zero-half cuts applied:  24
Lift and project cuts applied:  12
Gomory fractional cuts applied:  4

Root node processing (before b&c):
  Real time             =    5.63 sec. (5048.81 ticks)
Parallel b&c, 12 threads:
  Real time             =   17.36 sec. (7874.59 ticks)
  Sync time (average)   =    1.83 sec.
  Wait time (average)   =    0.00 sec.
                          ------------
Total (root+branch&cut) =   23.00 sec. (12923.40 ticks)
